unsat
(:max-memory         17.95
 :memory             17.95
 :nlsat-conflicts    3
 :nlsat-propagations 11
 :nlsat-stages       4
 :num-allocs         18301
 :rlimit-count       1294
 :time               0.00
 :total-time         0.01)
